c Reduced graph for 3-FullIns_4_0 generated by Cyril Grelier
p edge 233 1651
e 1 2
e 1 3
e 1 4
e 1 5
e 1 6
e 1 13
e 1 14
e 1 15
e 1 16
e 1 17
e 1 18
e 1 31
e 1 32
e 1 33
e 1 40
e 1 41
e 1 42
e 1 43
e 1 55
e 1 56
e 1 61
e 1 62
e 1 63
e 1 67
e 1 68
e 1 69
e 1 70
e 1 71
e 1 72
e 1 73
e 1 74
e 1 103
e 1 104
e 1 105
e 1 106
e 1 115
e 1 116
e 1 119
e 1 120
e 1 121
e 1 122
e 1 127
e 1 128
e 1 129
e 1 130
e 1 149
e 1 150
e 1 155
e 1 156
e 1 157
e 1 158
e 1 163
e 1 164
e 1 167
e 1 168
e 1 192
e 1 193
e 1 200
e 1 201
e 1 228
e 1 229
e 2 3
e 2 7
e 2 8
e 2 9
e 2 19
e 2 20
e 2 21
e 2 22
e 2 23
e 2 24
e 2 34
e 2 35
e 2 36
e 2 44
e 2 45
e 2 46
e 2 47
e 2 57
e 2 58
e 2 64
e 2 65
e 2 66
e 2 75
e 2 76
e 2 77
e 2 78
e 2 79
e 2 80
e 2 81
e 2 82
e 2 107
e 2 108
e 2 109
e 2 110
e 2 117
e 2 118
e 2 123
e 2 124
e 2 125
e 2 126
e 2 131
e 2 132
e 2 133
e 2 134
e 2 151
e 2 152
e 2 159
e 2 160
e 2 161
e 2 162
e 2 165
e 2 166
e 2 169
e 2 170
e 2 194
e 2 195
e 2 202
e 2 203
e 2 228
e 2 229
e 3 48
e 3 49
e 3 50
e 3 83
e 3 84
e 3 85
e 3 86
e 3 87
e 3 88
e 3 100
e 3 101
e 3 102
e 3 135
e 3 136
e 3 137
e 3 138
e 3 153
e 3 154
e 3 173
e 3 174
e 3 175
e 3 176
e 3 177
e 3 178
e 3 179
e 3 180
e 3 181
e 3 182
e 3 183
e 3 196
e 3 197
e 3 198
e 3 199
e 3 204
e 3 205
e 3 206
e 3 207
e 3 208
e 3 209
e 3 212
e 3 213
e 3 214
e 3 215
e 3 218
e 3 219
e 3 220
e 3 221
e 3 222
e 3 223
e 3 224
e 3 225
e 3 226
e 3 227
e 3 228
e 3 229
e 3 230
e 3 231
e 3 232
e 3 233
e 4 8
e 4 9
e 4 11
e 4 12
e 4 19
e 4 20
e 4 21
e 4 25
e 4 26
e 4 27
e 4 44
e 4 45
e 4 51
e 4 52
e 4 75
e 4 76
e 4 77
e 4 78
e 4 92
e 4 93
e 4 94
e 4 95
e 4 123
e 4 124
e 4 131
e 4 132
e 4 141
e 4 142
e 4 145
e 4 146
e 4 151
e 4 152
e 4 171
e 4 172
e 5 7
e 5 9
e 5 10
e 5 12
e 5 22
e 5 23
e 5 24
e 5 28
e 5 29
e 5 30
e 5 46
e 5 47
e 5 53
e 5 54
e 5 79
e 5 80
e 5 81
e 5 82
e 5 96
e 5 97
e 5 98
e 5 99
e 5 125
e 5 126
e 5 133
e 5 134
e 5 143
e 5 144
e 5 147
e 5 148
e 5 151
e 5 152
e 5 171
e 5 172
e 6 7
e 6 8
e 6 10
e 6 11
e 6 64
e 6 65
e 6 66
e 6 89
e 6 90
e 6 91
e 6 117
e 6 118
e 6 139
e 6 140
e 6 151
e 6 152
e 6 159
e 6 160
e 6 161
e 6 162
e 6 171
e 6 172
e 6 184
e 6 185
e 6 186
e 6 187
e 6 194
e 6 195
e 6 202
e 6 203
e 6 210
e 6 211
e 6 216
e 6 217
e 7 13
e 7 14
e 7 15
e 7 40
e 7 41
e 7 49
e 7 50
e 7 67
e 7 68
e 7 69
e 7 70
e 7 83
e 7 84
e 7 85
e 7 119
e 7 120
e 7 127
e 7 128
e 7 135
e 7 136
e 7 149
e 7 150
e 7 176
e 7 177
e 7 178
e 7 179
e 7 206
e 7 207
e 7 212
e 7 213
e 7 218
e 7 219
e 8 16
e 8 17
e 8 18
e 8 42
e 8 43
e 8 48
e 8 50
e 8 71
e 8 72
e 8 73
e 8 74
e 8 86
e 8 87
e 8 88
e 8 121
e 8 122
e 8 129
e 8 130
e 8 137
e 8 138
e 8 149
e 8 150
e 8 180
e 8 181
e 8 182
e 8 183
e 8 208
e 8 209
e 8 214
e 8 215
e 8 218
e 8 219
e 9 48
e 9 49
e 9 61
e 9 62
e 9 63
e 9 115
e 9 116
e 9 149
e 9 150
e 9 155
e 9 156
e 9 157
e 9 158
e 9 173
e 9 174
e 9 175
e 9 192
e 9 193
e 9 200
e 9 201
e 9 204
e 9 205
e 9 218
e 9 219
e 9 220
e 9 221
e 9 222
e 9 223
e 9 230
e 9 231
e 9 232
e 9 233
e 10 11
e 10 12
e 10 13
e 10 14
e 10 15
e 10 25
e 10 26
e 10 27
e 10 40
e 10 41
e 10 51
e 10 52
e 10 67
e 10 68
e 10 69
e 10 70
e 10 92
e 10 93
e 10 94
e 10 95
e 10 119
e 10 120
e 10 127
e 10 128
e 10 141
e 10 142
e 10 145
e 10 146
e 10 149
e 10 150
e 10 171
e 10 172
e 11 12
e 11 16
e 11 17
e 11 18
e 11 28
e 11 29
e 11 30
e 11 42
e 11 43
e 11 53
e 11 54
e 11 71
e 11 72
e 11 73
e 11 74
e 11 96
e 11 97
e 11 98
e 11 99
e 11 121
e 11 122
e 11 129
e 11 130
e 11 143
e 11 144
e 11 147
e 11 148
e 11 149
e 11 150
e 11 171
e 11 172
e 12 61
e 12 62
e 12 63
e 12 89
e 12 90
e 12 91
e 12 115
e 12 116
e 12 139
e 12 140
e 12 149
e 12 150
e 12 155
e 12 156
e 12 157
e 12 158
e 12 171
e 12 172
e 12 184
e 12 185
e 12 186
e 12 187
e 12 192
e 12 193
e 12 200
e 12 201
e 12 210
e 12 211
e 12 216
e 12 217
e 13 23
e 13 24
e 13 29
e 13 30
e 13 35
e 13 36
e 13 38
e 13 39
e 13 46
e 13 47
e 13 53
e 13 54
e 13 57
e 13 58
e 13 59
e 13 60
e 13 79
e 13 80
e 13 96
e 13 97
e 13 107
e 13 108
e 13 111
e 13 112
e 14 22
e 14 24
e 14 28
e 14 30
e 14 34
e 14 36
e 14 37
e 14 39
e 14 46
e 14 47
e 14 53
e 14 54
e 14 57
e 14 58
e 14 59
e 14 60
e 14 81
e 14 82
e 14 98
e 14 99
e 14 109
e 14 110
e 14 113
e 14 114
e 15 22
e 15 23
e 15 28
e 15 29
e 15 34
e 15 35
e 15 37
e 15 38
e 15 46
e 15 47
e 15 53
e 15 54
e 15 57
e 15 58
e 15 59
e 15 60
e 15 125
e 15 126
e 15 143
e 15 144
e 15 165
e 15 166
e 15 188
e 15 189
e 16 20
e 16 21
e 16 26
e 16 27
e 16 44
e 16 45
e 16 51
e 16 52
e 16 65
e 16 66
e 16 75
e 16 76
e 16 90
e 16 91
e 16 92
e 16 93
e 16 117
e 16 118
e 16 139
e 16 140
e 16 159
e 16 160
e 16 184
e 16 185
e 17 19
e 17 21
e 17 25
e 17 27
e 17 44
e 17 45
e 17 51
e 17 52
e 17 64
e 17 66
e 17 77
e 17 78
e 17 89
e 17 91
e 17 94
e 17 95
e 17 117
e 17 118
e 17 139
e 17 140
e 17 161
e 17 162
e 17 186
e 17 187
e 18 19
e 18 20
e 18 25
e 18 26
e 18 44
e 18 45
e 18 51
e 18 52
e 18 64
e 18 65
e 18 89
e 18 90
e 18 117
e 18 118
e 18 123
e 18 124
e 18 139
e 18 140
e 18 141
e 18 142
e 18 194
e 18 195
e 18 210
e 18 211
e 19 32
e 19 33
e 19 42
e 19 43
e 19 48
e 19 55
e 19 56
e 19 71
e 19 72
e 19 87
e 19 88
e 19 101
e 19 102
e 19 103
e 19 104
e 19 137
e 19 138
e 19 153
e 19 154
e 19 180
e 19 181
e 19 196
e 19 197
e 20 31
e 20 33
e 20 42
e 20 43
e 20 48
e 20 55
e 20 56
e 20 73
e 20 74
e 20 86
e 20 88
e 20 100
e 20 102
e 20 105
e 20 106
e 20 137
e 20 138
e 20 153
e 20 154
e 20 182
e 20 183
e 20 198
e 20 199
e 21 31
e 21 32
e 21 42
e 21 43
e 21 48
e 21 55
e 21 56
e 21 86
e 21 87
e 21 100
e 21 101
e 21 121
e 21 122
e 21 137
e 21 138
e 21 153
e 21 154
e 21 163
e 21 164
e 21 208
e 21 209
e 21 224
e 21 225
e 22 40
e 22 41
e 22 49
e 22 62
e 22 63
e 22 67
e 22 68
e 22 84
e 22 85
e 22 115
e 22 116
e 22 135
e 22 136
e 22 155
e 22 156
e 22 174
e 22 175
e 22 176
e 22 177
e 22 204
e 22 205
e 22 220
e 22 221
e 23 40
e 23 41
e 23 49
e 23 61
e 23 63
e 23 69
e 23 70
e 23 83
e 23 85
e 23 115
e 23 116
e 23 135
e 23 136
e 23 157
e 23 158
e 23 173
e 23 175
e 23 178
e 23 179
e 23 204
e 23 205
e 23 222
e 23 223
e 24 40
e 24 41
e 24 49
e 24 61
e 24 62
e 24 83
e 24 84
e 24 115
e 24 116
e 24 119
e 24 120
e 24 135
e 24 136
e 24 173
e 24 174
e 24 192
e 24 193
e 24 204
e 24 205
e 24 206
e 24 207
e 24 230
e 24 231
e 25 29
e 25 30
e 25 32
e 25 33
e 25 38
e 25 39
e 25 42
e 25 43
e 25 53
e 25 54
e 25 55
e 25 56
e 25 59
e 25 60
e 25 71
e 25 72
e 25 96
e 25 97
e 25 103
e 25 104
e 25 111
e 25 112
e 26 28
e 26 30
e 26 31
e 26 33
e 26 37
e 26 39
e 26 42
e 26 43
e 26 53
e 26 54
e 26 55
e 26 56
e 26 59
e 26 60
e 26 73
e 26 74
e 26 98
e 26 99
e 26 105
e 26 106
e 26 113
e 26 114
e 27 28
e 27 29
e 27 31
e 27 32
e 27 37
e 27 38
e 27 42
e 27 43
e 27 53
e 27 54
e 27 55
e 27 56
e 27 59
e 27 60
e 27 121
e 27 122
e 27 143
e 27 144
e 27 163
e 27 164
e 27 188
e 27 189
e 28 40
e 28 41
e 28 51
e 28 52
e 28 62
e 28 63
e 28 67
e 28 68
e 28 90
e 28 91
e 28 92
e 28 93
e 28 115
e 28 116
e 28 139
e 28 140
e 28 155
e 28 156
e 28 184
e 28 185
e 29 40
e 29 41
e 29 51
e 29 52
e 29 61
e 29 63
e 29 69
e 29 70
e 29 89
e 29 91
e 29 94
e 29 95
e 29 115
e 29 116
e 29 139
e 29 140
e 29 157
e 29 158
e 29 186
e 29 187
e 30 40
e 30 41
e 30 51
e 30 52
e 30 61
e 30 62
e 30 89
e 30 90
e 30 115
e 30 116
e 30 119
e 30 120
e 30 139
e 30 140
e 30 141
e 30 142
e 30 192
e 30 193
e 30 210
e 30 211
e 31 35
e 31 36
e 31 38
e 31 39
e 31 44
e 31 45
e 31 51
e 31 52
e 31 57
e 31 58
e 31 59
e 31 60
e 31 75
e 31 76
e 31 92
e 31 93
e 31 107
e 31 108
e 31 111
e 31 112
e 32 34
e 32 36
e 32 37
e 32 39
e 32 44
e 32 45
e 32 51
e 32 52
e 32 57
e 32 58
e 32 59
e 32 60
e 32 77
e 32 78
e 32 94
e 32 95
e 32 109
e 32 110
e 32 113
e 32 114
e 33 34
e 33 35
e 33 37
e 33 38
e 33 44
e 33 45
e 33 51
e 33 52
e 33 57
e 33 58
e 33 59
e 33 60
e 33 123
e 33 124
e 33 141
e 33 142
e 33 165
e 33 166
e 33 188
e 33 189
e 34 40
e 34 41
e 34 55
e 34 56
e 34 67
e 34 68
e 34 84
e 34 85
e 34 101
e 34 102
e 34 103
e 34 104
e 34 135
e 34 136
e 34 153
e 34 154
e 34 176
e 34 177
e 34 196
e 34 197
e 35 40
e 35 41
e 35 55
e 35 56
e 35 69
e 35 70
e 35 83
e 35 85
e 35 100
e 35 102
e 35 105
e 35 106
e 35 135
e 35 136
e 35 153
e 35 154
e 35 178
e 35 179
e 35 198
e 35 199
e 36 40
e 36 41
e 36 55
e 36 56
e 36 83
e 36 84
e 36 100
e 36 101
e 36 119
e 36 120
e 36 135
e 36 136
e 36 153
e 36 154
e 36 163
e 36 164
e 36 206
e 36 207
e 36 224
e 36 225
e 37 38
e 37 39
e 37 40
e 37 41
e 37 51
e 37 52
e 37 55
e 37 56
e 37 59
e 37 60
e 37 67
e 37 68
e 37 92
e 37 93
e 37 103
e 37 104
e 37 111
e 37 112
e 38 39
e 38 40
e 38 41
e 38 51
e 38 52
e 38 55
e 38 56
e 38 59
e 38 60
e 38 69
e 38 70
e 38 94
e 38 95
e 38 105
e 38 106
e 38 113
e 38 114
e 39 40
e 39 41
e 39 51
e 39 52
e 39 55
e 39 56
e 39 59
e 39 60
e 39 119
e 39 120
e 39 141
e 39 142
e 39 163
e 39 164
e 39 188
e 39 189
e 40 47
e 40 54
e 40 58
e 40 60
e 41 46
e 41 53
e 41 57
e 41 59
e 42 45
e 42 52
e 42 64
e 42 65
e 42 66
e 42 89
e 42 90
e 42 91
e 42 118
e 42 140
e 43 44
e 43 51
e 43 64
e 43 65
e 43 66
e 43 89
e 43 90
e 43 91
e 43 117
e 43 139
e 44 48
e 44 56
e 44 86
e 44 87
e 44 88
e 44 100
e 44 101
e 44 102
e 44 138
e 44 154
e 45 48
e 45 55
e 45 86
e 45 87
e 45 88
e 45 100
e 45 101
e 45 102
e 45 137
e 45 153
e 46 49
e 46 61
e 46 62
e 46 63
e 46 83
e 46 84
e 46 85
e 46 116
e 46 136
e 46 173
e 46 174
e 46 175
e 46 205
e 47 49
e 47 61
e 47 62
e 47 63
e 47 83
e 47 84
e 47 85
e 47 115
e 47 135
e 47 173
e 47 174
e 47 175
e 47 204
e 48 75
e 48 76
e 48 77
e 48 78
e 48 123
e 48 124
e 48 131
e 48 132
e 48 151
e 48 152
e 49 79
e 49 80
e 49 81
e 49 82
e 49 125
e 49 126
e 49 133
e 49 134
e 49 151
e 49 152
e 50 64
e 50 65
e 50 66
e 50 117
e 50 118
e 50 151
e 50 152
e 50 159
e 50 160
e 50 161
e 50 162
e 50 194
e 50 195
e 50 202
e 50 203
e 51 54
e 51 56
e 51 60
e 52 53
e 52 55
e 52 59
e 53 61
e 53 62
e 53 63
e 53 89
e 53 90
e 53 91
e 53 116
e 53 140
e 54 61
e 54 62
e 54 63
e 54 89
e 54 90
e 54 91
e 54 115
e 54 139
e 55 58
e 55 60
e 56 57
e 56 59
e 57 83
e 57 84
e 57 85
e 57 100
e 57 101
e 57 102
e 57 136
e 57 154
e 58 83
e 58 84
e 58 85
e 58 100
e 58 101
e 58 102
e 58 135
e 58 153
e 59 60
e 61 79
e 61 80
e 61 96
e 61 97
e 62 81
e 62 82
e 62 98
e 62 99
e 63 125
e 63 126
e 63 143
e 63 144
e 64 71
e 64 72
e 64 87
e 64 88
e 64 137
e 64 138
e 64 180
e 64 181
e 65 73
e 65 74
e 65 86
e 65 88
e 65 137
e 65 138
e 65 182
e 65 183
e 66 86
e 66 87
e 66 121
e 66 122
e 66 137
e 66 138
e 66 208
e 66 209
e 67 82
e 67 99
e 67 110
e 67 114
e 67 134
e 67 148
e 67 170
e 67 191
e 68 81
e 68 98
e 68 109
e 68 113
e 68 133
e 68 147
e 68 169
e 68 190
e 69 80
e 69 97
e 69 108
e 69 112
e 69 126
e 69 144
e 69 166
e 69 189
e 70 79
e 70 96
e 70 107
e 70 111
e 70 125
e 70 143
e 70 165
e 70 188
e 71 78
e 71 89
e 71 95
e 71 132
e 71 146
e 71 162
e 71 187
e 71 203
e 71 217
e 72 77
e 72 89
e 72 94
e 72 131
e 72 145
e 72 161
e 72 186
e 72 202
e 72 216
e 73 76
e 73 90
e 73 93
e 73 124
e 73 142
e 73 160
e 73 185
e 73 195
e 73 211
e 74 75
e 74 90
e 74 92
e 74 123
e 74 141
e 74 159
e 74 184
e 74 194
e 74 210
e 75 86
e 75 100
e 75 106
e 75 130
e 75 168
e 75 183
e 75 199
e 75 215
e 75 227
e 76 86
e 76 100
e 76 105
e 76 129
e 76 167
e 76 182
e 76 198
e 76 214
e 76 226
e 77 87
e 77 101
e 77 104
e 77 122
e 77 164
e 77 181
e 77 197
e 77 209
e 77 225
e 78 87
e 78 101
e 78 103
e 78 121
e 78 163
e 78 180
e 78 196
e 78 208
e 78 224
e 79 83
e 79 128
e 79 158
e 79 173
e 79 179
e 79 201
e 79 213
e 79 223
e 79 233
e 80 83
e 80 127
e 80 157
e 80 173
e 80 178
e 80 200
e 80 212
e 80 222
e 80 232
e 81 84
e 81 120
e 81 156
e 81 174
e 81 177
e 81 193
e 81 207
e 81 221
e 81 231
e 82 84
e 82 119
e 82 155
e 82 174
e 82 176
e 82 192
e 82 206
e 82 220
e 82 230
e 83 107
e 83 108
e 84 109
e 84 110
e 85 125
e 85 126
e 85 165
e 85 166
e 86 117
e 86 118
e 86 159
e 86 160
e 87 117
e 87 118
e 87 161
e 87 162
e 88 117
e 88 118
e 88 123
e 88 124
e 88 194
e 88 195
e 89 96
e 89 97
e 90 98
e 90 99
e 91 121
e 91 122
e 91 143
e 91 144
e 92 99
e 92 106
e 92 114
e 92 130
e 92 148
e 92 168
e 92 191
e 93 98
e 93 105
e 93 113
e 93 129
e 93 147
e 93 167
e 93 190
e 94 97
e 94 104
e 94 112
e 94 122
e 94 144
e 94 164
e 94 189
e 95 96
e 95 103
e 95 111
e 95 121
e 95 143
e 95 163
e 95 188
e 96 128
e 96 146
e 96 158
e 96 187
e 96 201
e 96 217
e 97 127
e 97 145
e 97 157
e 97 186
e 97 200
e 97 216
e 98 120
e 98 142
e 98 156
e 98 185
e 98 193
e 98 211
e 99 119
e 99 141
e 99 155
e 99 184
e 99 192
e 99 210
e 100 107
e 100 108
e 101 109
e 101 110
e 102 123
e 102 124
e 102 165
e 102 166
e 103 110
e 103 114
e 103 132
e 103 146
e 103 170
e 103 191
e 104 109
e 104 113
e 104 131
e 104 145
e 104 169
e 104 190
e 105 108
e 105 112
e 105 124
e 105 142
e 105 166
e 105 189
e 106 107
e 106 111
e 106 123
e 106 141
e 106 165
e 106 188
e 107 128
e 107 168
e 107 179
e 107 199
e 107 213
e 107 227
e 108 127
e 108 167
e 108 178
e 108 198
e 108 212
e 108 226
e 109 120
e 109 164
e 109 177
e 109 197
e 109 207
e 109 225
e 110 119
e 110 163
e 110 176
e 110 196
e 110 206
e 110 224
e 111 114
e 111 128
e 111 146
e 111 168
e 111 191
e 112 113
e 112 127
e 112 145
e 112 167
e 112 190
e 113 120
e 113 142
e 113 164
e 113 189
e 114 119
e 114 141
e 114 163
e 114 188
e 117 138
e 118 137
e 121 162
e 121 187
e 122 161
e 122 186
e 123 183
e 123 199
e 124 182
e 124 198
e 125 158
e 125 175
e 125 179
e 125 223
e 126 157
e 126 175
e 126 178
e 126 222
e 127 134
e 127 148
e 127 170
e 127 191
e 128 133
e 128 147
e 128 169
e 128 190
e 129 132
e 129 146
e 129 160
e 129 185
e 129 203
e 129 217
e 130 131
e 130 145
e 130 159
e 130 184
e 130 202
e 130 216
e 131 168
e 131 181
e 131 197
e 131 215
e 131 227
e 132 167
e 132 180
e 132 196
e 132 214
e 132 226
e 133 156
e 133 177
e 133 201
e 133 213
e 133 221
e 133 233
e 134 155
e 134 176
e 134 200
e 134 212
e 134 220
e 134 232
e 143 158
e 143 187
e 144 157
e 144 186
e 145 148
e 145 168
e 145 191
e 146 147
e 146 167
e 146 190
e 147 156
e 147 185
e 147 201
e 147 217
e 148 155
e 148 184
e 148 200
e 148 216
e 149 152
e 149 172
e 150 151
e 150 171
e 151 219
e 152 218
e 159 183
e 159 215
e 160 182
e 160 214
e 161 181
e 161 209
e 162 180
e 162 208
e 165 179
e 165 199
e 166 178
e 166 198
e 167 170
e 167 191
e 168 169
e 168 190
e 169 177
e 169 197
e 169 213
e 169 227
e 170 176
e 170 196
e 170 212
e 170 226
e 171 172
e 180 203
e 181 202
e 182 195
e 183 194
e 190 191
e 202 215
e 203 214
e 228 229
